unsat
(:SPACER-cluster-out-of-gas           3
 :SPACER-concretize                   133
 :SPACER-conj                         20
 :SPACER-expand-pob-undef             113
 :SPACER-inductive-gen                520
 :SPACER-inductive-gen-weaken-fail    1150
 :SPACER-inductive-gen-weaken-success 79
 :SPACER-inductive-level              10
 :SPACER-max-depth                    19
 :SPACER-max-query-lvl                19
 :SPACER-non-local-gen                37
 :SPACER-num-active-lemmas            111
 :SPACER-num-ctp-blocked              251
 :SPACER-num-invariants               384
 :SPACER-num-is_invariant             3278
 :SPACER-num-lemma-jumped             79
 :SPACER-num-lemmas                   528
 :SPACER-num-non-lin                  109
 :SPACER-num-pobs                     475
 :SPACER-num-propagations             2484
 :SPACER-num-queries                  373
 :SPACER-num-reach-queries            24
 :SPACER-num-reuse-reach-facts        15
 :SPACER-pob-out-of-gas               2
 :SPACER-subsume-failed               1
 :SPACER-subsume-pob                  13
 :SPACER-subsume-success              18
 :added-eqs                           1954732
 :arith-assert-diseq                  452244
 :arith-assert-lower                  2498318
 :arith-assert-upper                  3395832
 :arith-bound-prop                    483254
 :arith-branch-var                    1354
 :arith-conflicts                     6986
 :arith-eq-adapter                    87248
 :arith-fixed-eqs                     647444
 :arith-gcd-conflicts                 76
 :arith-gcd-tests                     632630
 :arith-gomory-cuts                   954
 :arith-ineq-splits                   1354
 :arith-num-rows                      2120
 :arith-offset-eqs                    711914
 :arith-patches                       2566
 :arith-patches_succ                  128
 :arith-pivots                        71004
 :arith-row-summations                16806404
 :arith-tableau-max-columns           3226
 :arith-tableau-max-rows              2120
 :conflicts                           22624
 :decisions                           7736644
 :del-clause                          235676
 :final-checks                        7170
 :iuc_solver.num_proxies              3836
 :max-memory                          305.50
 :memory                              295.04
 :minimized-lits                      19152
 :mk-bool-var                         235824
 :mk-clause                           716074
 :num-allocs                          676154306238.00
 :num-checks                          15242
 :pool_solver.checks                  7621
 :pool_solver.checks.sat              1057
 :pool_solver.checks.undef            1277
 :propagations                        21846456
 :rlimit-count                        325393646
 :time                                97.40
 :time.iuc_solver.get_iuc             2.39
 :time.iuc_solver.get_iuc.hyp_reduce1 1.07
 :time.iuc_solver.get_iuc.hyp_reduce2 1.47
 :time.iuc_solver.get_iuc.learn_core  0.33
 :time.pool_solver.proof              0.33
 :time.pool_solver.smt.total          85.59
 :time.pool_solver.smt.total.sat      30.90
 :time.pool_solver.smt.total.undef    26.87
 :time.spacer.ctp                     0.36
 :time.spacer.init_rules              0.00
 :time.spacer.mbp                     0.16
 :time.spacer.solve                   96.74
 :time.spacer.solve.propagate         27.63
 :time.spacer.solve.reach             69.11
 :time.spacer.solve.reach.children    0.96
 :time.spacer.solve.reach.cluster     3.23
 :time.spacer.solve.reach.gen.global  1.06
 :time.spacer.solve.reach.gen.ind     34.52
 :time.spacer.solve.reach.is-reach    0.71)
(:max-memory   305.50
 :memory       295.04
 :num-allocs   676154306238.00
 :rlimit-count 325393646
 :time         97.40
 :total-time   97.42)
